JulietBench/Juliet_Based_Patch_Bench/linux/CWE-189-Numeric-Errors/CVE_2011_1745_194b3da873fd334ef183806db751473512af29ce/Resultagp_generic_insert_memory_Snippet_patch1EQ.smt2
; benchmark generated from python API
(set-info :status unknown)
(declare-fun R () (_ BitVec 32))
(declare-fun rdx () (_ BitVec 64))
(declare-fun rsi () (_ BitVec 64))
(declare-fun rdi () (_ BitVec 64))
(assert
 (let (($x2764 (= (_ bv4294967274 32) R)))
 (let ((?x6 ((_ extract 31 0) rdx)))
 (let ((?x7 ((_ zero_extend 32) ?x6)))
 (let ((?x11 (bvlshr ?x7 (_ bv31 64))))
 (let ((?x20 ((_ extract 0 0) ?x11)))
 (let ((?x27 (bvand ?x20 (_ bv1 1))))
 (let (($x53 (= (_ bv0 1) ?x27)))
 (let ((?x68 ((_ sign_extend 32) ?x6)))
 (let ((?x67 (bvadd rdi rsi)))
 (let (($x810 (bvugt ?x67 ?x68)))
 (let (($x2768 (and $x810 $x53 $x2764)))
 (let (($x26 (and (distinct (_ bv0 1) ?x27) true)))
 (let (($x819 (bvugt ?x67 (_ bv0 64))))
 (let (($x2765 (and $x819 $x26 $x2764)))
 (let (($x69 (bvule ?x67 ?x68)))
 (let (($x1694 (bvult ?x67 rdi)))
 (let (($x2774 (and $x1694 $x69 $x53 $x2764)))
 (let (($x2766 (= (_ bv0 32) R)))
 (let (($x2434 (bvuge ?x67 rdi)))
 (let (($x2773 (and $x2434 $x69 $x53 $x2766)))
 (let (($x63 (bvule ?x67 (_ bv0 64))))
 (let (($x2772 (and $x1694 $x63 $x26 $x2764)))
 (let (($x2771 (and $x2434 $x63 $x26 $x2766)))
 (let (($x2775 (or $x2771 $x2772 $x2773 $x2774 $x2765 $x2768)))
 (let (($x2769 (and $x69 $x53 $x2766)))
 (let (($x2767 (and $x63 $x26 $x2766)))
 (let (($x2770 (or $x2765 $x2767 $x2768 $x2769)))
 (and $x2770 $x2775)))))))))))))))))))))))))))))
(check-sat)
